p cnf 25 930
1 -1 0
1 -1 -2 0
1 3 -1 0
1 4 -1 0
1 5 -1 0
1 2 -1 0
1 2 -2 0
1 2 3 0
1 2 4 0
1 2 5 0
1 3 -1 0
1 3 -2 0
1 3 0
1 3 4 0
1 3 5 0
1 4 -1 0
1 4 -2 0
1 3 4 0
1 4 0
1 4 5 0
1 -5 -1 0
1 -5 -2 0
3 1 -5 0
1 -5 4 0
1 -5 5 0
2 -1 0
2 -1 -2 0
2 3 -1 0
2 4 -1 0
2 5 -1 0
2 -1 0
2 -2 0
2 3 0
2 4 0
2 5 0
2 3 -1 0
2 3 -2 0
2 3 0
2 3 4 0
2 3 5 0
2 4 -1 0
2 4 -2 0
2 3 4 0
2 4 0
2 4 5 0
2 -5 -1 0
2 -5 -2 0
3 2 -5 0
2 -5 4 0
2 -5 5 0
3 -1 0
3 -1 -2 0
3 -1 0
3 4 -1 0
3 5 -1 0
2 3 -1 0
2 3 -2 0
2 3 0
2 3 4 0
2 3 5 0
3 -1 0
3 -2 0
3 0
3 4 0
3 5 0
3 4 -1 0
3 4 -2 0
3 4 0
3 4 0
3 4 5 0
3 -1 -5 0
3 -2 -5 0
3 -5 0
3 4 -5 0
3 5 -5 0
-4 -1 0
-4 -1 -2 0
3 -4 -1 0
-4 4 -1 0
-4 5 -1 0
2 -4 -1 0
2 -4 -2 0
2 3 -4 0
2 -4 4 0
2 -4 5 0
3 -4 -1 0
3 -4 -2 0
3 -4 0
3 -4 4 0
3 -4 5 0
-4 4 -1 0
-4 4 -2 0
3 -4 4 0
-4 4 0
5 -4 4 0
-5 -4 -1 0
-5 -4 -2 0
3 -5 -4 0
-5 -4 4 0
-5 -4 5 0
-5 -1 0
-5 -1 -2 0
3 -5 -1 0
-5 4 -1 0
-5 5 -1 0
2 -5 -1 0
2 -5 -2 0
3 2 -5 0
2 -5 4 0
2 -5 5 0
3 -5 -1 0
3 -5 -2 0
3 -5 0
3 -5 4 0
3 -5 5 0
-5 4 -1 0
-5 4 -2 0
3 -5 4 0
-5 4 0
-5 4 5 0
-5 -1 0
-5 -2 0
3 -5 0
-5 4 0
-5 5 0
6 0
-7 0
8 0
-9 0
10 0
11 -11 0
11 -12 -11 0
13 11 -11 0
11 -11 14 0
11 -11 15 0
11 12 -11 0
11 12 -12 0
11 12 13 0
11 12 14 0
11 12 15 0
-11 11 13 0
11 -12 13 0
11 13 0
11 13 14 0
11 13 15 0
11 -11 14 0
11 -12 14 0
11 13 14 0
11 14 0
11 14 15 0
-15 11 -11 0
-15 11 -12 0
-15 11 13 0
-15 11 14 0
-15 11 15 0
12 -11 0
-12 12 -11 0
13 12 -11 0
12 -11 14 0
12 -11 15 0
12 -11 0
12 -12 0
12 13 0
12 14 0
12 15 0
-11 12 13 0
-12 12 13 0
12 13 0
12 13 14 0
12 13 15 0
12 -11 14 0
12 -12 14 0
12 13 14 0
12 14 0
12 14 15 0
-15 12 -11 0
-15 12 -12 0
-15 12 13 0
-15 12 14 0
-15 12 15 0
-11 13 0
-11 -12 13 0
-11 13 0
-11 13 14 0
-11 13 15 0
-11 12 13 0
-12 12 13 0
12 13 0
12 13 14 0
12 13 15 0
-11 13 0
-12 13 0
13 0
13 14 0
13 15 0
-11 13 14 0
-12 13 14 0
13 14 0
13 14 0
13 14 15 0
-15 -11 13 0
-15 -12 13 0
-15 13 0
-15 13 14 0
-15 13 15 0
-14 -11 0
-14 -12 -11 0
-14 13 -11 0
-14 -11 14 0
-14 -11 15 0
-14 12 -11 0
-14 12 -12 0
-14 12 13 0
-14 12 14 0
-14 12 15 0
-11 -14 13 0
-14 -12 13 0
-14 13 0
-14 13 14 0
-14 13 15 0
-14 -11 14 0
-14 -12 14 0
-14 13 14 0
-14 14 0
-14 14 15 0
-15 -14 -11 0
-15 -14 -12 0
-15 -14 13 0
-15 -14 14 0
-15 -14 15 0
-15 -11 0
-15 -12 -11 0
-15 13 -11 0
-15 -11 14 0
-15 -11 15 0
-15 12 -11 0
-15 12 -12 0
-15 12 13 0
-15 12 14 0
-15 12 15 0
-15 -11 13 0
-15 -12 13 0
-15 13 0
-15 13 14 0
-15 13 15 0
-15 -11 14 0
-15 -12 14 0
-15 13 14 0
-15 14 0
-15 14 15 0
-15 -11 0
-15 -12 0
-15 13 0
-15 14 0
-15 15 0
16 -16 0
16 -16 -17 0
16 -16 18 0
16 -16 -19 0
16 -16 20 0
16 17 -16 0
16 17 -17 0
16 17 18 0
16 17 -19 0
16 17 20 0
16 -16 -18 0
16 -18 -17 0
16 18 -18 0
16 -19 -18 0
16 20 -18 0
16 -16 19 0
16 19 -17 0
16 18 19 0
16 19 -19 0
16 19 20 0
16 -16 -20 0
16 -20 -17 0
16 18 -20 0
16 -20 -19 0
16 -20 20 0
-16 -17 0
-16 -17 0
-16 18 -17 0
-16 -19 -17 0
-16 20 -17 0
-16 17 -17 0
17 -17 0
17 18 -17 0
17 -19 -17 0
17 20 -17 0
-16 -18 -17 0
-18 -17 0
18 -18 -17 0
-19 -18 -17 0
20 -18 -17 0
-16 19 -17 0
19 -17 0
18 19 -17 0
19 -19 -17 0
19 20 -17 0
-16 -20 -17 0
-20 -17 0
18 -20 -17 0
-20 -19 -17 0
-20 20 -17 0
-16 18 0
-16 18 -17 0
-16 18 0
-16 18 -19 0
-16 18 20 0
-16 17 18 0
17 18 -17 0
17 18 0
17 18 -19 0
17 18 20 0
-16 18 -18 0
18 -18 -17 0
18 -18 0
18 -19 -18 0
18 20 -18 0
-16 18 19 0
18 19 -17 0
18 19 0
18 19 -19 0
18 19 20 0
-16 18 -20 0
18 -20 -17 0
18 -20 0
18 -20 -19 0
18 -20 20 0
-16 -19 0
-16 -19 -17 0
-16 18 -19 0
-16 -19 0
-16 20 -19 0
-16 17 -19 0
17 -19 -17 0
17 18 -19 0
17 -19 0
17 20 -19 0
-16 -19 -18 0
-19 -18 -17 0
18 -19 -18 0
-19 -18 0
20 -19 -18 0
-16 19 -19 0
19 -19 -17 0
18 19 -19 0
19 -19 0
19 20 -19 0
-16 -20 -19 0
-20 -19 -17 0
18 -20 -19 0
-20 -19 0
20 -20 -19 0
-16 -20 0
-16 -20 -17 0
-16 18 -20 0
-16 -20 -19 0
-16 -20 20 0
-16 17 -20 0
17 -20 -17 0
17 18 -20 0
17 -20 -19 0
17 -20 20 0
-16 -20 -18 0
-20 -18 -17 0
18 -20 -18 0
-20 -19 -18 0
-20 20 -18 0
-16 19 -20 0
19 -20 -17 0
18 19 -20 0
19 -20 -19 0
19 -20 20 0
-16 -20 0
-20 -17 0
18 -20 0
-20 -19 0
-20 20 0
-21 21 0
-22 -21 21 0
-21 21 23 0
-24 -21 21 0
25 -21 21 0
-21 21 22 0
-22 21 22 0
21 22 23 0
-24 21 22 0
25 21 22 0
-23 -21 21 0
-23 -22 21 0
-23 21 23 0
-24 -23 21 0
-23 21 25 0
24 -21 21 0
24 -22 21 0
24 21 23 0
24 -24 21 0
24 25 21 0
-21 21 -25 0
-22 21 -25 0
23 21 -25 0
-24 21 -25 0
25 21 -25 0
-22 -21 0
-22 -21 0
-22 -21 23 0
-24 -22 -21 0
25 -22 -21 0
-22 -21 22 0
-22 22 0
-22 22 23 0
-24 -22 22 0
25 -22 22 0
-23 -22 -21 0
-23 -22 0
-23 -22 23 0
-24 -23 -22 0
-23 -22 25 0
24 -22 -21 0
24 -22 0
24 -22 23 0
24 -24 -22 0
24 25 -22 0
-22 -21 -25 0
-22 -25 0
-22 23 -25 0
-24 -22 -25 0
25 -22 -25 0
-21 23 0
-22 -21 23 0
-21 23 0
-24 -21 23 0
25 -21 23 0
-21 22 23 0
-22 22 23 0
22 23 0
-24 22 23 0
25 22 23 0
-23 -21 23 0
-23 -22 23 0
-23 23 0
-24 -23 23 0
-23 25 23 0
24 -21 23 0
24 -22 23 0
24 23 0
24 -24 23 0
24 25 23 0
-21 -25 23 0
-22 -25 23 0
-25 23 0
-24 -25 23 0
25 -25 23 0
-24 -21 0
-24 -22 -21 0
-24 -21 23 0
-24 -21 0
-24 25 -21 0
-24 -21 22 0
-24 -22 22 0
-24 22 23 0
-24 22 0
-24 25 22 0
-24 -23 -21 0
-24 -23 -22 0
-24 -23 23 0
-24 -23 0
-24 -23 25 0
-24 24 -21 0
-24 24 -22 0
-24 24 23 0
-24 24 0
-24 24 25 0
-24 -21 -25 0
-24 -22 -25 0
-24 23 -25 0
-24 -25 0
-24 25 -25 0
-21 -25 0
-22 -21 -25 0
-21 23 -25 0
-24 -21 -25 0
25 -21 -25 0
-21 22 -25 0
-22 22 -25 0
23 22 -25 0
-24 22 -25 0
25 22 -25 0
-23 -21 -25 0
-23 -22 -25 0
-23 23 -25 0
-24 -23 -25 0
-23 25 -25 0
24 -21 -25 0
24 -22 -25 0
24 23 -25 0
24 -24 -25 0
24 25 -25 0
-21 -25 0
-22 -25 0
23 -25 0
-24 -25 0
25 -25 0
1 -1 0
1 -6 -1 0
1 11 -1 0
-16 1 -1 0
1 21 -1 0
1 6 -1 0
1 -6 6 0
1 11 6 0
-16 1 6 0
1 21 6 0
1 -11 -1 0
1 -6 -11 0
1 11 -11 0
-16 1 -11 0
1 21 -11 0
16 1 -1 0
16 1 -6 0
16 1 11 0
16 1 -16 0
16 1 21 0
1 -21 -1 0
1 -6 -21 0
11 1 -21 0
-16 1 -21 0
1 -21 21 0
-6 -1 0
-6 -1 0
-6 11 -1 0
-16 -6 -1 0
-6 21 -1 0
-6 6 -1 0
-6 6 0
-6 11 6 0
-16 -6 6 0
-6 21 6 0
-6 -11 -1 0
-6 -11 0
-6 11 -11 0
-16 -6 -11 0
-6 21 -11 0
16 -6 -1 0
16 -6 0
16 -6 11 0
16 -16 -6 0
16 -6 21 0
-6 -21 -1 0
-6 -21 0
11 -6 -21 0
-16 -6 -21 0
-6 -21 21 0
11 -1 0
-6 11 -1 0
11 -1 0
-16 11 -1 0
11 21 -1 0
11 6 -1 0
-6 11 6 0
11 6 0
-16 11 6 0
11 21 6 0
11 -11 -1 0
-6 11 -11 0
11 -11 0
-16 11 -11 0
21 11 -11 0
16 11 -1 0
16 -6 11 0
16 11 0
16 -16 11 0
16 11 21 0
11 -1 -21 0
-6 11 -21 0
11 -21 0
-16 11 -21 0
11 21 -21 0
-16 -1 0
-16 -6 -1 0
-16 11 -1 0
-16 -1 0
-16 21 -1 0
-16 6 -1 0
-16 -6 6 0
-16 11 6 0
-16 6 0
-16 21 6 0
-16 -11 -1 0
-16 -6 -11 0
-16 11 -11 0
-16 -11 0
-16 21 -11 0
-16 16 -1 0
-16 16 -6 0
-16 16 11 0
-16 16 0
-16 16 21 0
-16 -21 -1 0
-16 -6 -21 0
-16 11 -21 0
-16 -21 0
-16 -21 21 0
-21 -1 0
-6 -21 -1 0
11 -21 -1 0
-16 -21 -1 0
-21 21 -1 0
-21 6 -1 0
-6 -21 6 0
11 -21 6 0
-16 -21 6 0
-21 21 6 0
-21 -11 -1 0
-6 -21 -11 0
11 -21 -11 0
-16 -21 -11 0
21 -21 -11 0
16 -21 -1 0
16 -6 -21 0
16 11 -21 0
16 -16 -21 0
16 -21 21 0
-21 -1 0
-6 -21 0
11 -21 0
-16 -21 0
-21 21 0
2 -2 0
2 7 0
2 -12 0
17 2 0
2 22 0
-7 -2 0
-7 7 0
-7 -12 0
-7 17 0
-7 22 0
12 -2 0
12 7 0
12 -12 0
17 12 0
12 22 0
17 -2 0
17 7 0
17 -12 0
17 0
17 22 0
-22 -2 0
-22 7 0
-22 -12 0
17 -22 0
-22 22 0
3 -3 0
-8 3 -3 0
13 3 -3 0
18 3 -3 0
3 -3 23 0
8 3 -3 0
8 -8 3 0
8 3 13 0
8 18 3 0
8 3 23 0
-3 3 13 0
-8 3 13 0
3 13 0
18 3 13 0
3 13 23 0
18 3 -3 0
-8 18 3 0
18 3 13 0
18 3 0
18 3 23 0
-23 3 -3 0
-8 -23 3 0
-23 3 13 0
-23 18 3 0
-23 3 23 0
8 -3 0
8 -8 -3 0
8 13 -3 0
8 18 -3 0
8 -3 23 0
8 -3 0
8 -8 0
8 13 0
8 18 0
8 23 0
8 -3 13 0
8 -8 13 0
8 13 0
8 18 13 0
8 13 23 0
8 18 -3 0
8 -8 18 0
8 18 13 0
8 18 0
8 18 23 0
8 -23 -3 0
8 -23 -8 0
8 -23 13 0
8 -23 18 0
8 -23 23 0
-3 13 0
-8 -3 13 0
-3 13 0
-3 18 13 0
-3 13 23 0
8 -3 13 0
8 -8 13 0
8 13 0
8 18 13 0
8 13 23 0
-3 13 0
-8 13 0
13 0
18 13 0
13 23 0
-3 18 13 0
-8 18 13 0
18 13 0
18 13 0
18 13 23 0
-23 -3 13 0
-8 -23 13 0
-23 13 0
-23 18 13 0
-23 13 23 0
-3 -18 0
-8 -3 -18 0
13 -3 -18 0
18 -3 -18 0
-3 -18 23 0
8 -3 -18 0
8 -8 -18 0
8 13 -18 0
8 18 -18 0
8 -18 23 0
-3 13 -18 0
-8 13 -18 0
13 -18 0
18 13 -18 0
13 -18 23 0
18 -3 -18 0
-8 18 -18 0
18 13 -18 0
18 -18 0
18 -18 23 0
-23 -3 -18 0
-8 -23 -18 0
-23 13 -18 0
-23 18 -18 0
-23 -18 23 0
-23 -3 0
-8 -23 -3 0
-23 13 -3 0
-23 18 -3 0
-23 -3 23 0
8 -23 -3 0
8 -23 -8 0
8 -23 13 0
8 -23 18 0
8 -23 23 0
-23 -3 13 0
-8 -23 13 0
-23 13 0
-23 18 13 0
-23 13 23 0
-23 18 -3 0
-8 -23 18 0
-23 18 13 0
-23 18 0
-23 18 23 0
-23 -3 0
-8 -23 0
-23 13 0
-23 18 0
-23 23 0
4 -4 0
9 4 0
-14 4 0
19 4 0
24 4 0
-4 -9 0
9 -9 0
-14 -9 0
19 -9 0
24 -9 0
-4 14 0
9 14 0
-14 14 0
19 14 0
24 14 0
19 -4 0
9 19 0
-14 19 0
19 0
24 19 0
-24 -4 0
-24 9 0
-24 -14 0
-24 19 0
-24 24 0
-5 5 0
-5 5 -10 0
-5 5 15 0
-5 -20 5 0
25 -5 5 0
10 -5 5 0
10 5 -10 0
10 5 15 0
10 -20 5 0
25 10 5 0
-15 -5 5 0
-15 5 -10 0
-15 5 15 0
-15 -20 5 0
-15 5 25 0
-5 20 5 0
20 5 -10 0
20 5 15 0
-20 20 5 0
25 20 5 0
-5 5 -25 0
5 -10 -25 0
15 5 -25 0
-20 5 -25 0
25 5 -25 0
-5 -10 0
-5 -10 0
-5 -10 15 0
-5 -20 -10 0
25 -5 -10 0
10 -5 -10 0
10 -10 0
10 -10 15 0
10 -20 -10 0
25 10 -10 0
-15 -5 -10 0
-15 -10 0
-15 -10 15 0
-15 -20 -10 0
-15 -10 25 0
-5 20 -10 0
20 -10 0
20 -10 15 0
20 -20 -10 0
25 20 -10 0
-5 -10 -25 0
-10 -25 0
15 -10 -25 0
-20 -10 -25 0
25 -10 -25 0
-5 15 0
-5 -10 15 0
-5 15 0
-5 -20 15 0
25 -5 15 0
10 -5 15 0
10 -10 15 0
10 15 0
10 -20 15 0
25 10 15 0
-15 -5 15 0
-15 -10 15 0
-15 15 0
-15 -20 15 0
-15 25 15 0
-5 20 15 0
20 -10 15 0
20 15 0
20 -20 15 0
25 20 15 0
-5 -25 15 0
-25 -10 15 0
-25 15 0
-25 -20 15 0
25 -25 15 0
-5 -20 0
-5 -20 -10 0
-5 -20 15 0
-5 -20 0
25 -5 -20 0
10 -5 -20 0
10 -20 -10 0
10 -20 15 0
10 -20 0
25 10 -20 0
-15 -5 -20 0
-15 -20 -10 0
-15 -20 15 0
-15 -20 0
-15 -20 25 0
-5 -20 20 0
-20 20 -10 0
-20 20 15 0
-20 20 0
25 -20 20 0
-5 -20 -25 0
-20 -10 -25 0
-20 15 -25 0
-20 -25 0
25 -20 -25 0
-5 -25 0
-5 -10 -25 0
-5 15 -25 0
-5 -20 -25 0
25 -5 -25 0
10 -5 -25 0
10 -10 -25 0
10 15 -25 0
10 -20 -25 0
25 10 -25 0
-15 -5 -25 0
-15 -10 -25 0
-15 15 -25 0
-15 -20 -25 0
-15 25 -25 0
-5 20 -25 0
20 -10 -25 0
20 15 -25 0
20 -20 -25 0
25 20 -25 0
-5 -25 0
-10 -25 0
15 -25 0
-20 -25 0
25 -25 0
